(set-logic QF_S)
(declare-fun _var_0xINPUT_160292_() String)
(declare-fun __woorpje_diseq_pref0_() String)
(declare-fun __woorpje_diseq_suf_l0_() String)
(declare-fun __woorpje_diseq_suf_r0_() String)
(assert (=(str.++  "FHEW2ZXBLX" "")(str.++ _var_0xINPUT_160292_  "")) )
(check-sat)
